WARNING: for repeatability, setting FPU to use double precision
============================[ Problem Statistics ]=============================
|                                                                             |
|  Number of variables:            50                                         |
|  Number of clauses:             218                                         |
|  Parse time:                   0.00 s                                       |
|                                                                             |
============================[ Search Statistics ]==============================
| Conflicts |          ORIGINAL         |          LEARNT          | Progress |
|           |    Vars  Clauses Literals |    Limit  Clauses Lit/Cl |          |
===============================================================================
===============================================================================
restarts              : 1
conflicts             : 62             (295238 /sec)
decisions             : 66             (0.00 % random) (314286 /sec)
propagations          : 920            (4380952 /sec)
conflict literals     : 212            (22.63 % deleted)
Memory used           : 20.00 MB
CPU time              : 0.00021 s

UNSATISFIABLE
